c ---- [ banner ] ------------------------------------------------------------
c
c Kissat SAT Solver
c 
c Copyright (c) 2021-2024 Armin Biere University of Freiburg
c Copyright (c) 2019-2021 Armin Biere Johannes Kepler University Linz
c 
c Version 4.0.1 43f02cf3e992cb44653b35e5cb26f93281552ae0
c gcc (Ubuntu 13.2.0-23ubuntu4) 13.2.0 -W -Wall -O3 -DNDEBUG
c Thu Sep 12 12:27:46 CEST 2024 Linux abryzen9 6.8.0-41-generic x86_64
c
c ---- [ parsing ] -----------------------------------------------------------
c
c opened and reading DIMACS file:
c
c   /data/artifact/AMulet2.0_artifact/exp4/cnf_resyn3_64/64_64_U1_DT_RC_Multgen_resyn3.cnf
c
c parsed 'p cnf 24914 112335' header
c closing input after reading 2230773 bytes (2 MB)
c finished parsing after 0.02 seconds
c
c ---- [ options ] -----------------------------------------------------------
c
c --stable=0                       (different from default '1')
c
c ---- [ solving ] -----------------------------------------------------------
c
c  seconds switched rate     size/glue tier1  binary          remaining
c         MB reductions conflicts size  tier2    irredundant
c          level restarts redundant glue  trail          variables
c
c *  0.02  9 0 0 0  0 0   0   0 0.0 0 0 0 0 0% 8737 103596 24911 100%
c (  0.03 11 0 0 0  0 0   0   0 0.0 0 0 0 0 0% 8737 103596 24911 100%
c .  0.03 11 0 0 0  0 0   0   0 0.0 0 0 0 0 0% 8733 103596 24911 100%
c =  0.09 16 0 0 0  0 0   0   0 0.0 0 0 0 0 0% 9027 103592 24817 100%
c d  0.10 16 0 0 0  0 0   0   0 0.0 0 0 0 0 0% 8839 103592 24817 100%
c f  0.15 15 0 0 0  0 0   0   0 0.0 0 0 0 0 0% 13716 95930 27579 111%
c e  0.26 19 0 0 0  0 0   0   0 0.0 0 0 0 0 0% 8306 103501 18663 75%
c )  0.26 19 0 0 0  0 0   0   0 0.0 0 0 0 0 0% 8306 103501 18663 75%
c {  0.27 24 0 0 0  0 0   0   0 0.0 0 0 2 6 0% 8306 103501 18663 75%
c -  0.48 26 203 0 1 230 40 1000 747 3.4 21 6 4 10 29% 8330 103500 18663 75%
c -  0.73 26 220 0 2 436 45 2002 1400 5.2 39 8 4 12 30% 8350 103500 18663 75%
c d  0.81 26 240 0 2 479 44 2502 1801 5.1 37 7 4 12 28% 8358 103500 18655 75%
c u  0.83 26 240 0 2 479 44 2502 1432 5.1 37 7 4 12 28% 8364 103500 18655 75%
c v  0.85 26 240 0 2 479 44 2502 1213 5.1 37 7 4 12 28% 8364 103500 18655 75%
c w  0.86 26 240 0 2 479 44 2502 1213 5.1 37 7 4 12 28% 8364 103500 18655 75%
c =  0.95 26 240 0 2 479 44 2502 1213 5.1 37 7 4 12 28% 8690 103500 18492 74%
c d  0.96 26 240 0 2 479 44 2502 1212 5.1 37 7 4 12 28% 8364 103500 18492 74%
c f  0.99 26 240 0 2 479 44 2502 1212 5.1 37 7 4 12 28% 8956 102300 19098 77%
c c  1.04 22 240 0 2 479 44 2502 1210 5.1 37 7 4 12 28% 8957 102292 19097 77%
c d  1.05 22 240 0 2 479 44 2502 1210 5.1 37 7 4 12 28% 8955 102292 19097 77%
c
c  seconds   switched   rate       size/glue tier1     binary          remaining
c         MB  reductions conflicts       size  tier2      irredundant
c           level restarts    redundant    glue    trail          variables
c
c u  1.06 22 240 0 2 479 44 2502 1166 5.1 37 7 4 12 28% 8957 102292 19097 77%
c v  1.08 23 240 0 2 479 44 2502 1135 5.1 37 7 4 12 28% 8957 102292 19097 77%
c w  1.12 23 240 0 2 479 44 2502 1131 5.1 37 7 4 12 28% 8957 102292 19097 77%
c =  1.18 25 240 0 2 479 44 2502 1131 5.1 37 7 4 12 28% 9461 102292 18845 76%
c d  1.19 25 240 0 2 479 44 2502 1130 5.1 37 7 4 12 28% 8900 102292 18845 76%
c f  1.22 25 240 0 2 479 44 2502 1130 5.1 37 7 4 12 28% 8944 102225 18867 76%
c -  1.47 26 236 0 3 631 46 3419 1616 5.7 44 8 4 12 30% 8989 102225 18867 76%
c -  1.67 26 309 0 4 740 38 5151 2653 5.0 36 7 3 11 29% 9047 102225 18867 76%
c -  1.85 26 347 0 5 876 35 7151 3708 4.6 31 7 3 10 27% 9107 102225 18867 76%
c d  1.91 28 356 0 5 909 35 7704 4182 4.5 31 7 3 10 27% 9022 102225 18819 76%
c u  1.94 28 356 0 5 909 35 7704 3499 4.5 31 7 3 10 27% 9039 102225 18819 76%
c v  1.96 28 356 0 5 909 35 7704 3198 4.5 31 7 3 10 27% 9039 102225 18819 76%
c w  1.98 28 356 0 5 909 35 7704 3198 4.5 31 7 3 10 27% 9039 102225 18819 76%
c x  2.00 28 356 0 5 909 35 7704 3198 4.5 31 7 3 10 27% 9039 101670 18819 76%
c =  2.08 28 356 0 5 909 35 7704 3198 4.5 31 7 3 10 27% 9919 101670 18379 74%
c d  2.09 28 356 0 5 909 35 7704 3152 4.5 31 7 3 10 27% 8910 101670 18378 74%
c f  2.14 28 356 0 5 909 35 7704 3152 4.5 31 7 3 10 27% 9148 101306 18497 74%
c u  2.17 28 356 0 5 909 35 7704 3018 4.5 31 7 3 10 27% 9149 101306 18497 74%
c v  2.19 28 356 0 5 909 35 7704 2924 4.5 31 7 3 10 27% 9149 101306 18497 74%
c w  2.21 28 356 0 5 909 35 7704 2922 4.5 31 7 3 10 27% 9149 101306 18497 74%
c
c  seconds   switched   rate       size/glue tier1     binary          remaining
c         MB  reductions conflicts       size  tier2      irredundant
c           level restarts    redundant    glue    trail          variables
c
c x  2.23 28 356 0 5 909 35 7704 2922 4.5 31 7 3 10 27% 9149 100857 18497 74%
c =  2.31 28 356 0 5 909 35 7704 2922 4.5 31 7 3 10 27% 9983 100857 18080 73%
c d  2.31 28 356 0 5 909 35 7704 2902 4.5 31 7 3 10 27% 9038 100857 18080 73%
c t  2.32 28 356 0 5 909 35 7704 2902 4.5 31 7 3 10 27% 9031 100857 18080 73%
c f  2.36 28 356 0 5 909 35 7704 2902 4.5 31 7 3 10 27% 10743 98287 18936 76%
c -  2.63 28 380 0 6 1056 33 9388 3692 4.5 31 7 2 9 27% 10790 98287 18936 76%
c o  2.75 28 372 0 6 1121 33 10007 4267 4.4 31 7 2 9 27% 10799 98287 18936 76%
c -  2.98 28 390 0 7 1232 34 11837 4988 4.4 30 7 2 9 27% 10836 98287 18936 76%
c s  3.16 28 396 0 7 1319 35 12505 5595 4.5 31 7 2 9 27% 10844 92767 18936 76%
c e  3.26 28 396 0 7 1319 35 12505 5595 4.5 31 7 2 9 27% 10663 92876 18805 75%
c 2  3.26 28 396 0 7 1319 35 12505 5595 4.5 31 7 2 9 27% 10661 92876 18805 75%
c s  3.26 28 396 0 7 1319 35 12505 5595 4.5 31 7 2 9 27% 10663 92814 18805 75%
c e  3.27 28 396 0 7 1319 35 12505 5595 4.5 31 7 2 9 27% 10659 92816 18803 75%
c ^  3.27 28 396 0 7 1319 35 12505 5595 4.5 31 7 2 9 27% 10659 92816 18803 75%
c -  3.70 28 385 0 8 1543 36 14483 6170 4.6 32 7 2 9 27% 10740 92816 18803 75%
c c  3.90 28 381 0 8 1635 36 15783 7248 4.5 32 7 2 9 27% 10807 92618 18762 75%
c d  3.91 28 381 0 8 1635 36 15783 7199 4.5 32 7 2 9 27% 10326 92618 18537 74%
c u  3.93 28 381 0 8 1635 36 15783 6442 4.5 32 7 2 9 27% 10343 92618 18537 74%
c v  3.96 28 381 0 8 1635 36 15783 5513 4.5 32 7 2 9 27% 10345 92618 18537 74%
c w  4.00 28 381 0 8 1635 36 15783 5512 4.5 32 7 2 9 27% 10345 92618 18537 74%
c
c  seconds   switched    rate        size/glue tier1    binary          remaining
c         MB  reductions   conflicts       size  tier2      irredundant
c           level  restarts     redundant    glue   trail          variables
c
c x  4.03 28 381 0 8 1635 36 15783 5512 4.5 32 7 2 9 27% 10345 92542 18537 74%
c =  4.16 28 381 0 8 1635 36 15783 5512 4.5 32 7 2 9 27% 11067 92540 18176 73%
c d  4.17 28 381 0 8 1635 36 15783 5407 4.5 32 7 2 9 27% 10219 92540 18175 73%
c t  4.18 28 381 0 8 1635 36 15783 5407 4.5 32 7 2 9 27% 10135 92540 18175 73%
c f  4.23 28 381 0 8 1635 36 15783 5407 4.5 32 7 2 9 27% 10139 92532 18177 73%
c u  4.26 28 381 0 8 1635 36 15783 5233 4.5 32 7 2 9 27% 10144 92532 18177 73%
c v  4.28 28 381 0 8 1635 36 15783 5084 4.5 32 7 2 9 27% 10144 92532 18177 73%
c w  4.34 28 381 0 8 1635 36 15783 5061 4.5 32 7 2 9 27% 10144 92532 18177 73%
c =  4.48 28 381 0 8 1635 36 15783 5061 4.5 32 7 2 9 27% 11486 92532 17506 70%
c d  4.49 28 381 0 8 1635 36 15783 5038 4.5 32 7 2 9 27% 9884 92532 17506 70%
c t  4.50 28 381 0 8 1635 36 15783 5038 4.5 32 7 2 9 27% 9883 92532 17506 70%
c f  4.52 28 381 0 8 1635 36 15783 5038 4.5 32 7 2 9 27% 9885 92527 17507 70%
c -  4.71 28 371 0 9 1729 35 17311 5513 4.4 31 7 2 9 26% 9938 92527 17507 70%
c o  5.34 28 349 0 9 2060 35 20007 7819 4.5 33 7 2 9 27% 10002 92527 17507 70%
c -  5.43 28 345 0 10 2112 35 20311 7104 4.5 34 7 2 9 27% 10002 92527 17507 70%
c -  5.96 28 328 0 11 2388 34 23473 8602 4.5 34 8 2 9 27% 10053 92527 17507 70%
c s  6.14 28 321 0 11 2458 33 25005 9897 4.4 33 8 2 9 27% 10107 87653 17507 70%
c e  6.21 28 321 0 11 2458 33 25005 9897 4.4 33 8 2 9 27% 8509 89910 16410 66%
c s  6.21 28 321 0 11 2458 33 25005 9897 4.4 33 8 2 9 27% 8509 89469 16410 66%
c ^  6.22 28 321 0 11 2458 33 25005 9897 4.4 33 8 2 9 27% 8509 89469 16410 66%
c
c  seconds   switched     rate        size/glue tier1    binary         remaining
c         MB   reductions   conflicts       size  tier2     irredundant
c           level   restarts     redundant    glue   trail         variables
c
c -  6.48 28 314 0 12 2583 33 26789 8953 4.4 33 8 2 9 27% 8554 89469 16410 66%
c c  6.53 28 313 0 12 2585 32 26909 9060 4.4 33 8 2 9 27% 8628 89069 16354 66%
c d  6.54 28 313 0 12 2585 32 26909 9025 4.4 33 8 2 9 27% 8356 89069 16258 65%
c u  6.56 28 313 0 12 2585 32 26909 8099 4.4 33 8 2 9 27% 8371 89069 16258 65%
c v  6.61 28 313 0 12 2585 32 26909 7071 4.4 33 8 2 9 27% 8373 89069 16258 65%
c w  6.62 28 313 0 12 2585 32 26909 7069 4.4 33 8 2 9 27% 8373 89069 16258 65%
c x  6.68 28 313 0 12 2585 32 26909 7069 4.4 33 8 2 9 27% 8373 87313 16258 65%
c =  6.89 28 313 0 12 2585 32 26909 7069 4.4 33 8 2 9 27% 12365 87313 14262 57%
c d  6.89 28 313 0 12 2585 32 26909 6701 4.4 33 8 2 9 27% 8225 87313 14261 57%
c t  6.90 28 313 0 12 2585 32 26909 6701 4.4 33 8 2 9 27% 8224 87313 14261 57%
c f  6.94 28 313 0 12 2585 32 26909 6701 4.4 33 8 2 9 27% 8228 87297 14263 57%
c c  6.98 28 313 0 12 2585 32 26909 6698 4.4 33 8 2 9 27% 8238 87257 14258 57%
c d  6.98 28 313 0 12 2585 32 26909 6698 4.4 33 8 2 9 27% 8228 87257 14258 57%
c u  7.00 28 313 0 12 2585 32 26909 6116 4.4 33 8 2 9 27% 8231 87257 14258 57%
c v  7.02 28 313 0 12 2585 32 26909 5952 4.4 33 8 2 9 27% 8231 87257 14258 57%
c w  7.03 28 313 0 12 2585 32 26909 5951 4.4 33 8 2 9 27% 8231 87257 14258 57%
c x  7.10 28 313 0 12 2585 32 26909 5951 4.4 33 8 2 9 27% 8231 79524 14258 57%
c =  7.28 28 313 0 12 2585 32 26909 5951 4.4 33 8 2 9 27% 10777 79262 12955 52%
c d  7.28 28 313 0 12 2585 32 26909 5896 4.4 33 8 2 9 27% 8204 79262 12955 52%
c -  7.58 28 289 0 13 2742 30 30253 7617 4.2 31 7 2 9 27% 8240 79246 12955 52%
c
c  seconds   switched     rate        size/glue tier1    binary         remaining
c         MB   reductions   conflicts       size  tier2     irredundant
c           level   restarts     redundant    glue   trail         variables
c
c -  7.83 28 269 0 14 2951 28 33859 9308 4.0 29 7 2 8 26% 8310 79242 12955 52%
c -  8.27 28 254 0 15 3294 27 37603 10933 3.8 28 7 2 8 27% 8373 79242 12955 52%
c o  8.53 28 245 0 15 3494 27 40008 13093 3.7 27 7 2 8 27% 8409 79242 12955 52%
c d  8.67 28 241 0 15 3637 27 41243 13675 3.7 27 7 2 8 27% 8231 79242 12846 52%
c u  8.71 28 241 0 15 3637 27 41243 11342 3.7 27 7 2 8 27% 8250 79242 12846 52%
c v  8.74 28 241 0 15 3637 27 41243 10666 3.7 27 7 2 8 27% 8250 79242 12846 52%
c w  8.76 28 241 0 15 3637 27 41243 10666 3.7 27 7 2 8 27% 8250 79242 12846 52%
c x  8.81 28 241 0 15 3637 27 41243 10666 3.7 27 7 2 8 27% 8252 71812 12846 52%
c =  8.99 28 241 0 15 3637 27 41243 10666 3.7 27 7 2 8 27% 8350 71807 12796 51%
c d  9.00 28 241 0 15 3637 27 41243 10449 3.7 27 7 2 8 27% 8222 71807 12792 51%
c t  9.01 28 241 0 15 3637 27 41243 10449 3.7 27 7 2 8 27% 8221 71807 12792 51%
c c  9.05 28 241 0 15 3637 27 41243 10449 3.7 27 7 2 8 27% 8272 71549 12762 51%
c d  9.05 28 241 0 15 3637 27 41243 10341 3.7 27 7 2 8 27% 8212 71549 12762 51%
c u  9.07 28 241 0 15 3637 27 41243 9928 3.7 27 7 2 8 27% 8216 71549 12762 51%
c v  9.11 28 241 0 15 3637 27 41243 9126 3.7 27 7 2 8 27% 8217 71549 12762 51%
c w  9.13 28 241 0 15 3637 27 41243 9121 3.7 27 7 2 8 27% 8217 71549 12762 51%
c x  9.16 28 241 0 15 3637 27 41243 9121 3.7 27 7 2 8 27% 8217 69104 12762 51%
c d  9.31 28 241 0 15 3637 27 41243 9121 3.7 27 7 2 8 27% 8215 69104 12761 51%
c -  9.34 28 240 0 16 3637 26 41477 8041 3.7 27 7 2 8 27% 8222 69104 12761 51%
c -  9.58 28 227 0 17 3825 25 45477 9899 3.5 26 7 2 8 27% 8305 69104 12761 51%
c
c  seconds   switched     rate         size/glue tier1    binary         remaining
c         MB   reductions   conflicts        size  tier2     irredundant
c           level   restarts      redundant    glue   trail         variables
c
c - 10.05 28 216 0 18 4235 24 49601 11781 3.4 25 7 2 7 27% 8378 69104 12761 51%
c s 10.26 28 210 0 18 4407 23 52105 13861 3.4 25 7 2 7 27% 8445 64092 12761 51%
c e 10.31 28 210 0 18 4407 23 52105 13861 3.4 25 7 2 7 27% 7859 64216 12288 49%
c s 10.32 28 210 0 18 4407 23 52105 13861 3.4 25 7 2 7 27% 7859 63638 12288 49%
c ^ 10.32 28 210 0 18 4407 23 52105 13861 3.4 25 7 2 7 27% 7859 63638 12288 49%
c - 10.42 28 204 0 19 4471 23 53845 11088 3.3 24 7 2 7 26% 7926 63638 12288 49%
c i 10.71 28 198 0 19 4753 23 56753 13559 3.3 24 7 2 7 26% 7984 63638 12287 49%
c - 10.85 28 195 0 20 4876 22 58203 12884 3.2 24 7 2 7 26% 8001 63638 12287 49%
c c 10.92 28 194 0 20 4920 22 58909 13456 3.2 24 7 2 7 26% 8077 62784 12173 49%
c d 10.92 28 194 0 20 4920 22 58909 12712 3.2 24 7 2 7 26% 7851 62782 12173 49%
c d 10.93 28 194 0 20 4920 22 58909 12712 3.2 24 7 2 7 26% 7849 62782 12172 49%
c u 10.97 28 194 0 20 4920 22 58909 10900 3.2 24 7 2 7 26% 7864 62782 12171 49%
c v 11.01 28 194 0 20 4920 22 58909 10218 3.2 24 7 2 7 26% 7862 62782 12171 49%
c w 11.03 28 194 0 20 4920 22 58909 10212 3.2 24 7 2 7 26% 7862 62782 12171 49%
c x 11.08 28 194 0 20 4920 22 58909 10203 3.2 24 7 2 7 26% 7866 62486 12171 49%
c d 11.08 28 194 0 20 4920 22 58909 10150 3.2 24 7 2 7 26% 7852 62486 12165 49%
c t 11.10 28 194 0 20 4920 22 58909 10150 3.2 24 7 2 7 26% 7851 62486 12165 49%
c c 11.16 28 194 0 20 4920 22 58909 10150 3.2 24 7 2 7 26% 7851 62478 12164 49%
c d 11.16 28 194 0 20 4920 22 58909 10149 3.2 24 7 2 7 26% 7849 62478 12164 49%
c u 11.19 28 194 0 20 4920 22 58909 9787 3.2 24 7 2 7 26% 7851 62478 12164 49%
c
c  seconds   switched     rate        size/glue tier1    binary         remaining
c         MB   reductions   conflicts       size  tier2     irredundant
c           level   restarts     redundant    glue   trail         variables
c
c v 11.22 28 194 0 20 4920 22 58909 9174 3.2 24 7 2 7 26% 7853 62478 12164 49%
c w 11.24 28 194 0 20 4920 22 58909 9157 3.2 24 7 2 7 26% 7853 62478 12164 49%
c x 11.28 28 194 0 20 4920 22 58909 9157 3.2 24 7 2 7 26% 7853 62432 12164 49%
c = 11.45 28 194 0 20 4920 22 58909 9157 3.2 24 7 2 7 26% 7873 62432 12154 49%
c d 11.45 28 194 0 20 4920 22 58909 9141 3.2 24 7 2 7 26% 7843 62432 12151 49%
c i 11.46 28 194 0 20 4920 22 58909 9141 3.2 24 7 2 7 26% 7843 62432 12151 49%
c - 11.70 28 187 0 21 5222 22 62675 10852 3.2 23 7 2 7 26% 7926 62432 12151 49%
c i 11.99 28 179 0 21 5505 21 67029 14374 3.1 22 7 2 6 25% 8029 62432 12150 49%
c - 12.02 28 178 0 22 5543 21 67257 12691 3.1 22 7 2 6 25% 8027 62432 12150 49%
c i 12.02 28 177 0 22 5543 21 67660 12921 3.1 22 7 2 6 25% 8053 62432 12146 49%
c i 12.12 28 176 0 22 5667 21 68501 13656 3.1 22 7 2 6 25% 8069 62432 12145 49%
c i 12.25 28 174 0 22 5796 20 69792 14751 3.1 22 7 2 6 25% 8093 62432 12144 49%
c o 12.28 28 173 0 22 5814 20 70113 14995 3.1 22 7 2 6 25% 8103 62432 12144 49%
c i 12.29 28 173 0 22 5829 20 70237 15096 3.1 22 7 2 6 25% 8107 62432 12143 49%
c i 12.38 28 172 0 22 5951 20 70995 15793 3.0 22 7 2 6 25% 8113 62432 12142 49%
c - 12.44 28 170 0 23 6041 20 71947 13907 3.0 22 7 2 6 25% 8109 62432 12142 49%
c i 12.52 28 165 0 23 6183 20 74367 15765 3.0 22 7 2 6 24% 8182 62432 12139 49%
c i 12.53 28 165 0 23 6191 20 74541 15908 3.0 22 7 2 6 24% 8186 62432 12138 49%
c i 12.54 28 164 0 23 6206 20 74757 16092 3.0 22 7 2 6 24% 8191 62432 12137 49%
c i 12.54 28 164 0 23 6209 20 74902 16185 3.0 22 7 2 6 24% 8196 62432 12136 49%
c
c  seconds   switched     rate         size/glue tier1    binary         remaining
c         MB   reductions   conflicts        size  tier2     irredundant
c           level   restarts      redundant    glue   trail         variables
c
c i 12.55 28 164 0 23 6230 19 75217 16392 3.0 22 7 2 6 24% 8209 62432 12135 49%
c i 12.55 28 163 0 23 6230 19 75282 16445 3.0 22 7 2 6 24% 8209 62432 12134 49%
c i 12.56 28 163 0 23 6230 19 75555 16634 3.0 22 7 2 6 24% 8216 62432 12133 49%
c i 12.56 28 163 0 23 6230 19 75587 16650 3.0 22 7 2 6 24% 8218 62432 12132 49%
c i 12.56 28 163 0 23 6230 19 75589 16649 3.0 22 7 2 6 24% 8219 62432 12131 49%
c i 12.56 28 162 0 23 6235 19 75687 16719 3.0 22 7 2 6 24% 8227 62432 12130 49%
c i 12.56 28 162 0 23 6235 19 75705 16721 3.0 22 7 2 6 24% 8230 62432 12129 49%
c i 12.56 28 162 0 23 6235 19 75722 16723 3.0 22 7 2 6 24% 8235 62432 12127 49%
c i 12.56 28 162 0 23 6235 19 75727 16724 3.0 22 7 2 6 24% 8236 62431 12125 49%
c } 12.56 28 162 0 23 6235 19 75733 16725 3.0 22 7 2 6 24% 8238 62431 12117 49%
c 0 12.56 28 162 0 23 6235 19 75733 16725 3.0 22 7 2 6 24% 8238 62431 12117 49%
c
c ---- [ result ] ------------------------------------------------------------
c
s UNSATISFIABLE
c
c ---- [ profiling ] ---------------------------------------------------------
c
c           8.41   66.92 %  search
c           8.41   66.92 %  focused
c           3.88   30.89 %  simplify
c           3.70   29.49 %  probe
c           1.49   11.83 %  sweep
c           1.24    9.90 %  vivify
c           0.36    2.85 %  factor
c           0.30    2.39 %  eliminate
c           0.29    2.29 %  congruence
c           0.24    1.89 %  substitute
c           0.23    1.85 %  preprocess
c           0.10    0.83 %  fastel
c           0.08    0.66 %  reduce
c           0.07    0.53 %  transitive
c           0.06    0.44 %  subsume
c           0.02    0.20 %  backbone
c           0.02    0.19 %  lucky
c           0.02    0.15 %  parse
c =============================================
c          12.56  100.00 %  total
c
c ---- [ statistics ] --------------------------------------------------------
c
c chronological:                         2378                3 %  conflicts
c conflicts:                            75733             6029.09 per second
c congruent:                              248                1 %  variables
c decisions:                          1466087               19.36 per conflict
c eliminated:                           10619               43 %  variables
c factored:                              4370               18 %  variables
c fast_eliminated:                       8916               84 %  eliminated
c fast_subsumed:                          238                1 %  per subsumed
c iterations:                              21                0 %  variables
c propagations:                      63070613          5021042    per second
c reductions:                              23             3293    interval
c reordered:                                4            18933    interval
c restarts:                              6235               12    interval
c strengthened:                           131                0 %  checks
c substituted:                           6475               26 %  variables
c subsumed:                             16723                1 %  checks
c switched:                                 0                0    interval
c vivified:                             39779               13 %  checks
c
c ---- [ glue usage ] --------------------------------------------------------
c
c focused glue 2 used 40664 clauses 27.96% accumulated 70.74% tier1
c focused glue 3 used 12687 clauses  8.72% accumulated 79.46%
c focused glue 4 used  7577 clauses  5.21% accumulated 84.67%
c focused glue 5 used  4933 clauses  3.39% accumulated 88.06%
c focused glue 6 used  3476 clauses  2.39% accumulated 90.45% tier2
c
c ---- [ resources ] ---------------------------------------------------------
c
c maximum-resident-set-size:         29761536 bytes         28 MB
c process-time:                            13s              12.56 seconds
c
c ---- [ shutting down ] -----------------------------------------------------
c
c exit 20
